c FILE: queen6_6.col
c Translated from Stanford GraphBase File: queen6_6.sgb
c Stanford GraphBase ID: gunion(board(6,6,0,0,-1,0,0),board(6,6,0,0,-2,0,0),0,0)
p edge 36 580
e 2 1
e 3 1
e 3 2
e 4 1
e 4 2
e 4 3
e 5 1
e 5 2
e 5 3
e 5 4
e 6 1
e 6 2
e 6 3
e 6 4
e 6 5
e 7 1
e 7 2
e 8 1
e 8 2
e 8 3
e 8 7
e 9 2
e 9 3
e 9 4
e 9 7
e 9 8
e 10 3
e 10 4
e 10 5
e 10 7
e 10 8
e 10 9
e 11 4
e 11 5
e 11 6
e 11 7
e 11 8
e 11 9
e 11 10
e 12 5
e 12 6
e 12 7
e 12 8
e 12 9
e 12 10
e 12 11
e 13 1
e 13 3
e 13 7
e 13 8
e 14 2
e 14 4
e 14 7
e 14 8
e 14 9
e 14 13
e 15 1
e 15 3
e 15 5
e 15 8
e 15 9
e 15 10
e 15 13
e 15 14
e 16 2
e 16 4
e 16 6
e 16 9
e 16 10
e 16 11
e 16 13
e 16 14
e 16 15
e 17 3
e 17 5
e 17 10
e 17 11
e 17 12
e 17 13
e 17 14
e 17 15
e 17 16
e 18 4
e 18 6
e 18 11
e 18 12
e 18 13
e 18 14
e 18 15
e 18 16
e 18 17
e 19 1
e 19 4
e 19 7
e 19 9
e 19 13
e 19 14
e 20 2
e 20 5
e 20 8
e 20 10
e 20 13
e 20 14
e 20 15
e 20 19
e 21 3
e 21 6
e 21 7
e 21 9
e 21 11
e 21 14
e 21 15
e 21 16
e 21 19
e 21 20
e 22 1
e 22 4
e 22 8
e 22 10
e 22 12
e 22 15
e 22 16
e 22 17
e 22 19
e 22 20
e 22 21
e 23 2
e 23 5
e 23 9
e 23 11
e 23 16
e 23 17
e 23 18
e 23 19
e 23 20
e 23 21
e 23 22
e 24 3
e 24 6
e 24 10
e 24 12
e 24 17
e 24 18
e 24 19
e 24 20
e 24 21
e 24 22
e 24 23
e 25 1
e 25 5
e 25 7
e 25 10
e 25 13
e 25 15
e 25 19
e 25 20
e 26 2
e 26 6
e 26 8
e 26 11
e 26 14
e 26 16
e 26 19
e 26 20
e 26 21
e 26 25
e 27 3
e 27 9
e 27 12
e 27 13
e 27 15
e 27 17
e 27 20
e 27 21
e 27 22
e 27 25
e 27 26
e 28 4
e 28 7
e 28 10
e 28 14
e 28 16
e 28 18
e 28 21
e 28 22
e 28 23
e 28 25
e 28 26
e 28 27
e 29 1
e 29 5
e 29 8
e 29 11
e 29 15
e 29 17
e 29 22
e 29 23
e 29 24
e 29 25
e 29 26
e 29 27
e 29 28
e 30 2
e 30 6
e 30 9
e 30 12
e 30 16
e 30 18
e 30 23
e 30 24
e 30 25
e 30 26
e 30 27
e 30 28
e 30 29
e 31 1
e 31 6
e 31 7
e 31 11
e 31 13
e 31 16
e 31 19
e 31 21
e 31 25
e 31 26
e 32 2
e 32 8
e 32 12
e 32 14
e 32 17
e 32 20
e 32 22
e 32 25
e 32 26
e 32 27
e 32 31
e 33 3
e 33 9
e 33 15
e 33 18
e 33 19
e 33 21
e 33 23
e 33 26
e 33 27
e 33 28
e 33 31
e 33 32
e 34 4
e 34 10
e 34 13
e 34 16
e 34 20
e 34 22
e 34 24
e 34 27
e 34 28
e 34 29
e 34 31
e 34 32
e 34 33
e 35 5
e 35 7
e 35 11
e 35 14
e 35 17
e 35 21
e 35 23
e 35 28
e 35 29
e 35 30
e 35 31
e 35 32
e 35 33
e 35 34
e 36 1
e 36 6
e 36 8
e 36 12
e 36 15
e 36 18
e 36 22
e 36 24
e 36 29
e 36 30
e 36 31
e 36 32
e 36 33
e 36 34
e 36 35
